Version identifier: 22.1.1.0 | 2022-11-28 | 9160aff4d
CPXPARAM_ClockType                               1
CPXPARAM_Read_DataCheck                          1
CPXPARAM_Threads                                 1
CPXPARAM_Simplex_Tolerances_Optimality           1.0000000000000001e-09
CPXPARAM_TimeLimit                               7200
CPXPARAM_MIP_Tolerances_AbsMIPGap                0
CPXPARAM_MIP_Tolerances_MIPGap                   0
CPXPARAM_MIP_Tolerances_Integrality              0
Tried aggregator 5 times.
MIQP Presolve eliminated 24706 rows and 3606 columns.
MIQP Presolve modified 18 coefficients.
Aggregator did 2583 substitutions.
Reduced MIQP has 10508 rows, 4051 columns, and 31906 nonzeros.
Reduced MIQP has 3848 binaries, 203 generals, 0 SOSs, and 0 indicators.
Reduced MIQP objective Q matrix has 203 nonzeros.
Presolve time = 0.11 sec. (71.67 ticks)
Probing time = 0.01 sec. (2.94 ticks)
Tried aggregator 1 time.
Reduced MIQP has 10508 rows, 4051 columns, and 31906 nonzeros.
Reduced MIQP has 3848 binaries, 203 generals, 0 SOSs, and 0 indicators.
Reduced MIQP objective Q matrix has 203 nonzeros.
Presolve time = 0.03 sec. (16.78 ticks)
Classifier predicts products in MIQP should be linearized.
Probing time = 0.01 sec. (2.86 ticks)
Clique table members: 7524.
MIP emphasis: balance optimality and feasibility.
MIP search method: dynamic search.
Parallel mode: none, using 1 thread.
Root relaxation solution time = 4.86 sec. (5392.28 ticks)

        Nodes                                         Cuts/
   Node  Left     Objective  IInf  Best Integer    Best Bound    ItCnt     Gap

      0     0     5075.0000  2039                   5075.0000       12         
*     0+    0                         5075.0000     5075.0000             0.00%
      0     0        cutoff           5075.0000     5075.0000       12    0.00%
Elapsed time = 5.05 sec. (5520.16 ticks, tree = 0.01 MB, solutions = 1)

Root node processing (before b&c):
  Real time             =    5.05 sec. (5520.45 ticks)
Sequential b&c:
  Real time             =    0.00 sec. (0.00 ticks)
                          ------------
Total (root+branch&cut) =    5.05 sec. (5520.45 ticks)
Solution is feasible.

---------------------
@@@ MIP_optimal
>>> Benchmark mc2024_track1_181.cnf k 10 OPT 5075 TimeCost 10.754531621932983 TimeSolve 5.103292226791382 TimeRead 0.0204927921295166 TimeTrans 5.630746603012085
